NAME : kroE100-R-3-1-a.29359.tour
COMMENT : Length = 29359
COMMENT : Found by LKH-3 [Keld Helsgaun] Tue Jul 30 13:14:56 2024
TYPE : TOUR
DIMENSION : 100
TOUR_SECTION
1
74
21
69
46
26
79
73
61
71
89
52
88
35
63
12
32
95
36
28
23
56
15
20
60
97
54
65
5
42
90
22
86
43
39
93
30
66
13
75
41
87
27
67
82
4
2
11
37
34
53
78
100
29
24
18
94
19
91
55
6
77
85
96
70
92
9
31
57
80
10
50
49
62
84
17
40
99
45
25
8
48
33
38
68
72
44
14
81
16
47
3
51
98
59
64
58
76
7
83
-1
EOF
